# Components (V)
1 2 3 4 5 6 7 8 9 10 11 12 13 14 15 16 17 18 19 20 21 22 23 24 25 26 27 28 29 30 31 32 33 34 35 36 37 38 39 40 41 42 43 44 45 46 47 48 49 50 51 52 53 54 55 56 57 58 59 60 61 62 63 64 65 66 67 68 69 70 71 72 73 74 75 76 77 78 79 80 81 82 83 84 85 86 87 88 89 90 91 92 93 94 95 96 97 98 99 100 101 102 103 104 105 106 107 108 109 110 111 112 113 114 115 116 117 118 119 120 121 122 123 124 125 126 127 128 129 130 131 132 133 134 135 136 137 138 139 140 141 142 143 144 145 146 147 148 149 150 151 152 153 154 155 156 157 158 159 160 161 162 163 164 165 166 167 168 169 170 171 172 173 174 175 176 177 178 179 180 181 182 183 184 185 186 187 188 189 190 191 192 193 194 195 196 197 198 199 200 201 202 203 204 205 206 207 208 209 210 211 212 213 214 215 216 217 218 219 220 221 222 223 224 225 226 227 228 229 230 231 232 233 234 235 236 237 238 239 240 241 242 243 244 245 246 247 248 249 250 251 252 253 254 255 256 257 258 259 260 261 262 263 264 265 266 267 268 269 270 271 272 273 274 275 276 277 278 279 280 281 282 283 284 285 286 287 288 289 290 291 292 293 294 295 296 297 298 299 300 301 302 303 304 305 306 307 308 309 310 311 312 313 314 315 316 317 318 319 320 321 322 323 324 325 326 327 328 329 330 331 332 333 334 335 336 337 338 339 340 341 342 343 344 345 346 347 348 349 350 351 352 353 354 355 356 357 358 359 360 361 362 363 364 365 366 367 368 369 370 371 372 373 374 375 376 377 378 379 380 381 382 383 384 385 386 387 388 389 390 391 392 393 394 395 396 397 398 399

# Precedence arcs (E)
1 17
2 19
3 20
4 16
4 21
4 22
4 23
4 24
4 31
4 33
4 180
5 18
5 50
6 28
6 35
6 166
7 30
7 152
8 29
9 26
9 32
9 67
9 204
10 279
11 25
11 36
13 34
15 27
15 29
16 37
17 38
18 40
19 41
20 44
21 45
22 46
23 47
24 48
25 39
26 42
26 50
26 54
26 57
27 43
27 49
28 371
28 395
29 332
30 52
30 182
32 55
33 49
33 53
34 51
34 56
34 104
34 199
35 52
35 152
37 67
38 58
39 59
40 68
41 60
42 61
43 62
44 64
45 67
46 67
47 66
48 69
49 63
50 65
50 70
50 78
50 120
52 75
53 74
54 70
54 71
54 77
54 372
56 90
57 72
57 73
57 76
58 79
59 81
60 80
61 86
62 83
63 82
64 87
65 84
66 85
67 88
69 89
69 91
73 93
74 90
75 92
78 156
79 95
80 96
81 97
82 101
83 98
84 99
85 94
85 100
85 106
85 107
89 104
89 267
90 102
90 103
92 105
94 108
95 115
96 109
97 110
98 111
99 113
100 112
101 114
102 116
102 117
102 118
102 124
102 125
104 119
104 123
105 121
105 122
105 165
107 120
108 134
109 126
110 127
111 128
112 129
113 131
114 133
115 132
115 135
116 130
116 136
117 139
119 198
120 137
120 138
120 178
124 347
125 140
126 145
127 141
128 148
129 142
130 143
131 149
132 144
133 146
134 147
135 150
136 152
136 153
137 156
138 154
138 155
140 151
140 157
141 158
142 162
143 162
144 162
145 159
146 160
147 161
148 163
148 378
150 166
150 167
150 288
153 164
153 165
153 170
154 171
155 169
156 168
157 170
158 172
159 175
160 173
161 176
162 174
162 202
163 178
163 180
164 187
165 183
165 184
166 200
167 182
168 179
168 185
168 186
169 177
169 290
169 291
171 181
171 280
172 188
173 190
174 192
175 191
176 194
177 189
177 193
177 199
178 201
178 202
178 205
179 331
179 379
180 200
180 203
181 195
181 198
182 197
183 206
183 379
186 196
187 204
188 208
189 210
190 209
191 212
192 213
193 216
194 214
195 207
195 215
195 218
196 211
196 217
196 221
198 220
202 221
205 219
206 222
207 223
208 232
209 224
210 228
211 225
212 226
213 227
214 229
215 230
216 231
217 235
217 238
218 236
219 237
220 233
220 234
220 375
222 239
222 240
223 242
224 246
225 243
226 246
227 247
228 241
229 246
230 244
231 245
232 249
232 250
232 256
233 254
235 253
236 252
237 257
238 255
239 248
239 251
241 263
242 258
243 259
244 265
245 260
246 262
248 267
248 273
249 307
249 311
250 270
253 272
254 261
254 266
255 269
255 271
256 264
257 268
258 276
259 281
260 278
261 274
261 288
262 275
262 286
263 280
264 277
265 279
265 287
265 291
266 292
267 282
267 289
268 283
268 284
268 290
268 293
268 294
270 285
274 297
275 298
276 302
277 303
278 295
278 299
278 301
278 306
278 310
279 296
279 312
280 300
280 308
281 307
282 304
283 305
285 311
287 329
289 313
291 310
292 309
295 314
296 315
297 327
298 316
299 317
300 318
301 319
302 328
303 329
304 323
305 324
306 326
307 320
307 322
307 325
307 332
308 321
309 331
309 333
310 335
312 330
313 334
314 346
315 337
316 338
317 336
318 348
319 349
320 340
321 341
322 342
323 339
324 344
325 343
326 351
327 345
327 347
328 353
328 356
328 357
329 352
329 355
329 358
330 354
330 359
334 350
336 361
337 362
338 363
339 364
340 370
341 366
342 369
343 371
344 367
345 368
347 360
348 374
348 376
348 377
350 365
350 376
353 378
353 379
354 372
356 375
357 373
360 380
361 384
362 385
363 381
364 383
365 388
366 389
367 386
368 390
369 382
369 387
371 394
372 392
372 393
374 395
376 396
377 391
381 397
384 398
385 399

# Target components (T)
399 68

# Revenues (r)
1 24
2 26
3 20
4 26
5 23
6 21
7 24
8 25
9 28
10 23
11 26
12 27
13 28
14 29
15 26
16 25
17 29
18 22
19 21
20 29
21 25
22 30
23 24
24 26
25 22
26 30
27 25
28 27
29 22
30 30
31 20
32 27
33 26
34 26
35 21
36 28
37 30
38 24
39 26
40 20
41 24
42 23
43 30
44 29
45 21
46 23
47 29
48 22
49 23
50 29
51 21
52 27
53 28
54 20
55 21
56 26
57 20
58 20
59 26
60 28
61 24
62 22
63 20
64 24
65 23
66 27
67 28
68 26
69 21
70 27
71 23
72 23
73 22
74 29
75 30
76 29
77 24
78 22
79 27
80 23
81 21
82 24
83 29
84 30
85 27
86 25
87 30
88 22
89 29
90 28
91 26
92 29
93 29
94 25
95 26
96 24
97 26
98 22
99 26
100 30
101 26
102 28
103 23
104 28
105 21
106 22
107 25
108 25
109 25
110 20
111 20
112 25
113 25
114 28
115 21
116 28
117 25
118 26
119 29
120 21
121 20
122 27
123 24
124 27
125 27
126 30
127 21
128 28
129 28
130 20
131 28
132 27
133 29
134 27
135 24
136 26
137 25
138 21
139 27
140 27
141 21
142 25
143 23
144 21
145 28
146 27
147 20
148 30
149 22
150 25
151 24
152 24
153 23
154 30
155 30
156 30
157 27
158 22
159 28
160 22
161 21
162 21
163 30
164 29
165 26
166 29
167 20
168 25
169 23
170 26
171 21
172 25
173 25
174 29
175 24
176 23
177 27
178 24
179 29
180 20
181 22
182 23
183 23
184 28
185 22
186 27
187 28
188 23
189 24
190 20
191 29
192 30
193 28
194 28
195 20
196 27
197 30
198 28
199 26
200 21
201 20
202 26
203 22
204 27
205 26
206 20
207 30
208 28
209 28
210 30
211 24
212 24
213 27
214 20
215 24
216 30
217 23
218 20
219 24
220 28
221 25
222 27
223 27
224 23
225 26
226 24
227 29
228 25
229 29
230 29
231 29
232 30
233 21
234 28
235 29
236 25
237 29
238 26
239 23
240 29
241 26
242 24
243 24
244 24
245 25
246 21
247 29
248 22
249 27
250 21
251 30
252 20
253 22
254 21
255 26
256 29
257 28
258 28
259 26
260 23
261 27
262 23
263 28
264 30
265 20
266 25
267 30
268 29
269 26
270 26
271 29
272 24
273 24
274 30
275 23
276 25
277 30
278 25
279 25
280 29
281 24
282 30
283 26
284 28
285 24
286 20
287 26
288 28
289 29
290 27
291 26
292 27
293 21
294 21
295 28
296 21
297 29
298 24
299 28
300 20
301 24
302 30
303 24
304 27
305 29
306 23
307 30
308 21
309 25
310 21
311 24
312 30
313 22
314 30
315 30
316 28
317 22
318 28
319 27
320 30
321 28
322 24
323 24
324 25
325 27
326 30
327 30
328 28
329 22
330 25
331 22
332 29
333 23
334 27
335 26
336 20
337 24
338 25
339 26
340 25
341 28
342 21
343 21
344 30
345 24
346 21
347 22
348 23
349 23
350 20
351 23
352 28
353 27
354 21
355 27
356 22
357 22
358 30
359 22
360 30
361 20
362 26
363 27
364 24
365 29
366 21
367 23
368 24
369 25
370 22
371 20
372 25
373 24
374 23
375 26
376 22
377 20
378 24
379 29
380 29
381 22
382 23
383 20
384 20
385 26
386 25
387 25
388 25
389 21
390 28
391 22
392 29
393 30
394 21
395 21
396 29
397 20
398 27
399 21

# Costs (c)
1 7
2 10
3 7
4 4
5 4
6 10
7 6
8 8
9 6
10 8
11 2
12 10
13 3
14 10
15 3
16 3
17 3
18 2
19 2
20 2
21 5
22 8
23 7
24 4
25 1
26 10
27 2
28 9
29 1
30 10
31 6
32 2
33 6
34 1
35 5
36 1
37 5
38 9
39 7
40 4
41 6
42 8
43 10
44 7
45 9
46 6
47 3
48 9
49 4
50 3
51 4
52 8
53 5
54 2
55 1
56 10
57 2
58 10
59 10
60 2
61 10
62 6
63 7
64 3
65 6
66 1
67 1
68 7
69 6
70 1
71 10
72 3
73 8
74 9
75 7
76 6
77 1
78 3
79 4
80 6
81 1
82 5
83 5
84 9
85 4
86 7
87 10
88 10
89 1
90 6
91 5
92 8
93 1
94 9
95 6
96 7
97 1
98 6
99 7
100 1
101 9
102 3
103 7
104 1
105 2
106 1
107 10
108 4
109 9
110 7
111 4
112 8
113 1
114 7
115 8
116 7
117 7
118 5
119 8
120 6
121 10
122 8
123 2
124 5
125 3
126 1
127 1
128 4
129 7
130 8
131 3
132 7
133 2
134 4
135 4
136 3
137 3
138 5
139 8
140 1
141 7
142 6
143 5
144 6
145 5
146 9
147 1
148 9
149 10
150 5
151 3
152 3
153 9
154 10
155 4
156 5
157 3
158 4
159 3
160 2
161 2
162 10
163 9
164 2
165 3
166 10
167 1
168 9
169 6
170 3
171 9
172 10
173 8
174 7
175 3
176 5
177 2
178 8
179 9
180 1
181 2
182 8
183 8
184 9
185 2
186 8
187 6
188 6
189 2
190 5
191 1
192 1
193 1
194 9
195 9
196 2
197 7
198 4
199 10
200 4
201 5
202 2
203 1
204 2
205 9
206 3
207 1
208 3
209 8
210 9
211 2
212 2
213 1
214 9
215 2
216 7
217 5
218 9
219 10
220 6
221 4
222 2
223 2
224 8
225 1
226 1
227 1
228 10
229 3
230 5
231 1
232 8
233 2
234 2
235 3
236 5
237 2
238 8
239 1
240 1
241 2
242 10
243 5
244 5
245 3
246 3
247 6
248 3
249 10
250 7
251 8
252 3
253 4
254 2
255 2
256 10
257 5
258 3
259 3
260 8
261 3
262 10
263 1
264 3
265 3
266 9
267 3
268 2
269 7
270 8
271 6
272 3
273 4
274 6
275 3
276 10
277 9
278 10
279 6
280 4
281 6
282 4
283 1
284 9
285 5
286 8
287 2
288 2
289 6
290 2
291 9
292 5
293 8
294 6
295 8
296 9
297 1
298 3
299 4
300 7
301 9
302 7
303 1
304 4
305 4
306 2
307 4
308 5
309 2
310 7
311 6
312 6
313 9
314 9
315 4
316 10
317 6
318 10
319 5
320 9
321 2
322 9
323 6
324 6
325 2
326 8
327 7
328 8
329 5
330 3
331 4
332 2
333 3
334 1
335 9
336 2
337 3
338 4
339 9
340 10
341 6
342 7
343 7
344 10
345 10
346 1
347 5
348 6
349 7
350 7
351 10
352 10
353 1
354 9
355 5
356 6
357 6
358 6
359 7
360 8
361 4
362 5
363 10
364 4
365 3
366 8
367 8
368 1
369 5
370 2
371 6
372 3
373 2
374 6
375 4
376 4
377 2
378 9
379 10
380 9
381 1
382 10
383 4
384 5
385 4
386 1
387 2
388 1
389 7
390 7
391 2
392 5
393 7
394 5
395 3
396 2
397 9
398 9
399 2

# Durations (p)
1 161
2 118
3 199
4 81
5 83
6 68
7 163
8 77
9 169
10 172
11 127
12 88
13 140
14 63
15 21
16 64
17 179
18 178
19 59
20 128
21 67
22 317
23 75
24 133
25 89
26 59
27 149
28 65
29 256
30 114
31 127
32 188
33 214
34 220
35 216
36 143
37 129
38 136
39 129
40 203
41 252
42 229
43 162
44 105
45 229
46 179
47 59
48 150
49 163
50 77
51 93
52 147
53 180
54 22
55 139
56 233
57 141
58 110
59 266
60 94
61 144
62 86
63 98
64 146
65 269
66 105
67 297
68 104
69 154
70 268
71 120
72 180
73 69
74 213
75 174
76 117
77 77
78 72
79 136
80 41
81 57
82 62
83 237
84 181
85 65
86 136
87 133
88 161
89 87
90 31
91 146
92 67
93 90
94 131
95 188
96 134
97 57
98 299
99 91
100 254
101 183
102 45
103 39
104 119
105 169
106 176
107 51
108 77
109 83
110 282
111 357
112 125
113 82
114 292
115 63
116 59
117 137
118 156
119 23
120 79
121 136
122 58
123 90
124 67
125 124
126 278
127 142
128 49
129 201
130 88
131 106
132 118
133 208
134 62
135 156
136 94
137 206
138 56
139 44
140 119
141 69
142 182
143 53
144 110
145 242
146 214
147 70
148 206
149 75
150 120
151 43
152 87
153 296
154 94
155 43
156 120
157 128
158 210
159 75
160 104
161 192
162 142
163 237
164 55
165 165
166 125
167 153
168 36
169 232
170 110
171 72
172 117
173 261
174 93
175 131
176 69
177 93
178 85
179 44
180 108
181 68
182 216
183 208
184 241
185 22
186 107
187 57
188 148
189 253
190 210
191 190
192 72
193 125
194 149
195 141
196 77
197 140
198 268
199 134
200 94
201 246
202 289
203 277
204 114
205 263
206 136
207 32
208 75
209 137
210 28
211 54
212 51
213 162
214 93
215 105
216 67
217 205
218 38
219 141
220 177
221 149
222 125
223 273
224 153
225 258
226 195
227 113
228 290
229 61
230 268
231 250
232 110
233 120
234 100
235 165
236 95
237 46
238 126
239 202
240 206
241 134
242 145
243 85
244 125
245 144
246 98
247 111
248 152
249 113
250 151
251 149
252 29
253 221
254 89
255 100
256 113
257 222
258 92
259 80
260 99
261 87
262 210
263 219
264 233
265 174
266 126
267 141
268 27
269 77
270 48
271 27
272 112
273 37
274 41
275 78
276 33
277 240
278 53
279 22
280 106
281 41
282 139
283 53
284 313
285 140
286 33
287 118
288 22
289 79
290 193
291 65
292 125
293 61
294 76
295 76
296 177
297 212
298 227
299 161
300 51
301 67
302 100
303 34
304 140
305 127
306 125
307 86
308 55
309 84
310 149
311 165
312 72
313 119
314 71
315 22
316 81
317 112
318 228
319 38
320 98
321 113
322 276
323 109
324 154
325 240
326 71
327 76
328 64
329 119
330 161
331 26
332 221
333 95
334 114
335 117
336 56
337 28
338 66
339 252
340 39
341 100
342 224
343 52
344 364
345 108
346 120
347 74
348 190
349 94
350 135
351 126
352 158
353 68
354 118
355 122
356 22
357 20
358 229
359 94
360 293
361 289
362 87
363 154
364 129
365 292
366 47
367 208
368 179
369 174
370 100
371 184
372 119
373 38
374 74
375 247
376 59
377 22
378 111
379 108
380 86
381 196
382 137
383 222
384 51
385 136
386 76
387 42
388 91
389 197
390 104
391 308
392 222
393 102
394 258
395 150
396 33
397 100
398 49
399 238

orderrules
1 17 au000 avant au016
2 19 au001 avant au018
3 20 au002 avant au019
4 16 au003 avant au015
4 21 au003 avant au020
4 22 au003 avant au021
4 23 au003 avant au022
4 24 au003 avant au023
4 31 au003 avant au030
4 33 au003 avant au032
4 180 au003 avant au179
5 18 au004 avant au017
5 50 au004 avant au049
6 28 au005 avant au027
6 35 au005 avant au034
6 166 au005 avant au165
7 30 au006 avant au029
7 152 au006 avant au151
8 29 au007 avant au028
9 26 au008 avant au025
9 32 au008 avant au031
9 67 au008 avant au066
9 204 au008 avant au203
10 279 au009 avant au278
11 25 au010 avant au024
11 36 au010 avant au035
13 34 au012 avant au033
15 27 au014 avant au026
15 29 au014 avant au028
16 37 au015 avant au036
17 38 au016 avant au037
18 40 au017 avant au039
19 41 au018 avant au040
20 44 au019 avant au043
21 45 au020 avant au044
22 46 au021 avant au045
23 47 au022 avant au046
24 48 au023 avant au047
25 39 au024 avant au038
26 42 au025 avant au041
26 50 au025 avant au049
26 54 au025 avant au053
26 57 au025 avant au056
27 43 au026 avant au042
27 49 au026 avant au048
28 371 au027 avant au370
28 395 au027 avant au394
29 332 au028 avant au331
30 52 au029 avant au051
30 182 au029 avant au181
32 55 au031 avant au054
33 49 au032 avant au048
33 53 au032 avant au052
34 51 au033 avant au050
34 56 au033 avant au055
34 104 au033 avant au103
34 199 au033 avant au198
35 52 au034 avant au051
35 152 au034 avant au151
37 67 au036 avant au066
38 58 au037 avant au057
39 59 au038 avant au058
40 68 au039 avant au067
41 60 au040 avant au059
42 61 au041 avant au060
43 62 au042 avant au061
44 64 au043 avant au063
45 67 au044 avant au066
46 67 au045 avant au066
47 66 au046 avant au065
48 69 au047 avant au068
49 63 au048 avant au062
50 65 au049 avant au064
50 70 au049 avant au069
50 78 au049 avant au077
50 120 au049 avant au119
52 75 au051 avant au074
53 74 au052 avant au073
54 70 au053 avant au069
54 71 au053 avant au070
54 77 au053 avant au076
54 372 au053 avant au371
56 90 au055 avant au089
57 72 au056 avant au071
57 73 au056 avant au072
57 76 au056 avant au075
58 79 au057 avant au078
59 81 au058 avant au080
60 80 au059 avant au079
61 86 au060 avant au085
62 83 au061 avant au082
63 82 au062 avant au081
64 87 au063 avant au086
65 84 au064 avant au083
66 85 au065 avant au084
67 88 au066 avant au087
69 89 au068 avant au088
69 91 au068 avant au090
73 93 au072 avant au092
74 90 au073 avant au089
75 92 au074 avant au091
78 156 au077 avant au155
79 95 au078 avant au094
80 96 au079 avant au095
81 97 au080 avant au096
82 101 au081 avant au100
83 98 au082 avant au097
84 99 au083 avant au098
85 94 au084 avant au093
85 100 au084 avant au099
85 106 au084 avant au105
85 107 au084 avant au106
89 104 au088 avant au103
89 267 au088 avant au266
90 102 au089 avant au101
90 103 au089 avant au102
92 105 au091 avant au104
94 108 au093 avant au107
95 115 au094 avant au114
96 109 au095 avant au108
97 110 au096 avant au109
98 111 au097 avant au110
99 113 au098 avant au112
100 112 au099 avant au111
101 114 au100 avant au113
102 116 au101 avant au115
102 117 au101 avant au116
102 118 au101 avant au117
102 124 au101 avant au123
102 125 au101 avant au124
104 119 au103 avant au118
104 123 au103 avant au122
105 121 au104 avant au120
105 122 au104 avant au121
105 165 au104 avant au164
107 120 au106 avant au119
108 134 au107 avant au133
109 126 au108 avant au125
110 127 au109 avant au126
111 128 au110 avant au127
112 129 au111 avant au128
113 131 au112 avant au130
114 133 au113 avant au132
115 132 au114 avant au131
115 135 au114 avant au134
116 130 au115 avant au129
116 136 au115 avant au135
117 139 au116 avant au138
119 198 au118 avant au197
120 137 au119 avant au136
120 138 au119 avant au137
120 178 au119 avant au177
124 347 au123 avant au346
125 140 au124 avant au139
126 145 au125 avant au144
127 141 au126 avant au140
128 148 au127 avant au147
129 142 au128 avant au141
130 143 au129 avant au142
131 149 au130 avant au148
132 144 au131 avant au143
133 146 au132 avant au145
134 147 au133 avant au146
135 150 au134 avant au149
136 152 au135 avant au151
136 153 au135 avant au152
137 156 au136 avant au155
138 154 au137 avant au153
138 155 au137 avant au154
140 151 au139 avant au150
140 157 au139 avant au156
141 158 au140 avant au157
142 162 au141 avant au161
143 162 au142 avant au161
144 162 au143 avant au161
145 159 au144 avant au158
146 160 au145 avant au159
147 161 au146 avant au160
148 163 au147 avant au162
148 378 au147 avant au377
150 166 au149 avant au165
150 167 au149 avant au166
150 288 au149 avant au287
153 164 au152 avant au163
153 165 au152 avant au164
153 170 au152 avant au169
154 171 au153 avant au170
155 169 au154 avant au168
156 168 au155 avant au167
157 170 au156 avant au169
158 172 au157 avant au171
159 175 au158 avant au174
160 173 au159 avant au172
161 176 au160 avant au175
162 174 au161 avant au173
162 202 au161 avant au201
163 178 au162 avant au177
163 180 au162 avant au179
164 187 au163 avant au186
165 183 au164 avant au182
165 184 au164 avant au183
166 200 au165 avant au199
167 182 au166 avant au181
168 179 au167 avant au178
168 185 au167 avant au184
168 186 au167 avant au185
169 177 au168 avant au176
169 290 au168 avant au289
169 291 au168 avant au290
171 181 au170 avant au180
171 280 au170 avant au279
172 188 au171 avant au187
173 190 au172 avant au189
174 192 au173 avant au191
175 191 au174 avant au190
176 194 au175 avant au193
177 189 au176 avant au188
177 193 au176 avant au192
177 199 au176 avant au198
178 201 au177 avant au200
178 202 au177 avant au201
178 205 au177 avant au204
179 331 au178 avant au330
179 379 au178 avant au378
180 200 au179 avant au199
180 203 au179 avant au202
181 195 au180 avant au194
181 198 au180 avant au197
182 197 au181 avant au196
183 206 au182 avant au205
183 379 au182 avant au378
186 196 au185 avant au195
187 204 au186 avant au203
188 208 au187 avant au207
189 210 au188 avant au209
190 209 au189 avant au208
191 212 au190 avant au211
192 213 au191 avant au212
193 216 au192 avant au215
194 214 au193 avant au213
195 207 au194 avant au206
195 215 au194 avant au214
195 218 au194 avant au217
196 211 au195 avant au210
196 217 au195 avant au216
196 221 au195 avant au220
198 220 au197 avant au219
202 221 au201 avant au220
205 219 au204 avant au218
206 222 au205 avant au221
207 223 au206 avant au222
208 232 au207 avant au231
209 224 au208 avant au223
210 228 au209 avant au227
211 225 au210 avant au224
212 226 au211 avant au225
213 227 au212 avant au226
214 229 au213 avant au228
215 230 au214 avant au229
216 231 au215 avant au230
217 235 au216 avant au234
217 238 au216 avant au237
218 236 au217 avant au235
219 237 au218 avant au236
220 233 au219 avant au232
220 234 au219 avant au233
220 375 au219 avant au374
222 239 au221 avant au238
222 240 au221 avant au239
223 242 au222 avant au241
224 246 au223 avant au245
225 243 au224 avant au242
226 246 au225 avant au245
227 247 au226 avant au246
228 241 au227 avant au240
229 246 au228 avant au245
230 244 au229 avant au243
231 245 au230 avant au244
232 249 au231 avant au248
232 250 au231 avant au249
232 256 au231 avant au255
233 254 au232 avant au253
235 253 au234 avant au252
236 252 au235 avant au251
237 257 au236 avant au256
238 255 au237 avant au254
239 248 au238 avant au247
239 251 au238 avant au250
241 263 au240 avant au262
242 258 au241 avant au257
243 259 au242 avant au258
244 265 au243 avant au264
245 260 au244 avant au259
246 262 au245 avant au261
248 267 au247 avant au266
248 273 au247 avant au272
249 307 au248 avant au306
249 311 au248 avant au310
250 270 au249 avant au269
253 272 au252 avant au271
254 261 au253 avant au260
254 266 au253 avant au265
255 269 au254 avant au268
255 271 au254 avant au270
256 264 au255 avant au263
257 268 au256 avant au267
258 276 au257 avant au275
259 281 au258 avant au280
260 278 au259 avant au277
261 274 au260 avant au273
261 288 au260 avant au287
262 275 au261 avant au274
262 286 au261 avant au285
263 280 au262 avant au279
264 277 au263 avant au276
265 279 au264 avant au278
265 287 au264 avant au286
265 291 au264 avant au290
266 292 au265 avant au291
267 282 au266 avant au281
267 289 au266 avant au288
268 283 au267 avant au282
268 284 au267 avant au283
268 290 au267 avant au289
268 293 au267 avant au292
268 294 au267 avant au293
270 285 au269 avant au284
274 297 au273 avant au296
275 298 au274 avant au297
276 302 au275 avant au301
277 303 au276 avant au302
278 295 au277 avant au294
278 299 au277 avant au298
278 301 au277 avant au300
278 306 au277 avant au305
278 310 au277 avant au309
279 296 au278 avant au295
279 312 au278 avant au311
280 300 au279 avant au299
280 308 au279 avant au307
281 307 au280 avant au306
282 304 au281 avant au303
283 305 au282 avant au304
285 311 au284 avant au310
287 329 au286 avant au328
289 313 au288 avant au312
291 310 au290 avant au309
292 309 au291 avant au308
295 314 au294 avant au313
296 315 au295 avant au314
297 327 au296 avant au326
298 316 au297 avant au315
299 317 au298 avant au316
300 318 au299 avant au317
301 319 au300 avant au318
302 328 au301 avant au327
303 329 au302 avant au328
304 323 au303 avant au322
305 324 au304 avant au323
306 326 au305 avant au325
307 320 au306 avant au319
307 322 au306 avant au321
307 325 au306 avant au324
307 332 au306 avant au331
308 321 au307 avant au320
309 331 au308 avant au330
309 333 au308 avant au332
310 335 au309 avant au334
312 330 au311 avant au329
313 334 au312 avant au333
314 346 au313 avant au345
315 337 au314 avant au336
316 338 au315 avant au337
317 336 au316 avant au335
318 348 au317 avant au347
319 349 au318 avant au348
320 340 au319 avant au339
321 341 au320 avant au340
322 342 au321 avant au341
323 339 au322 avant au338
324 344 au323 avant au343
325 343 au324 avant au342
326 351 au325 avant au350
327 345 au326 avant au344
327 347 au326 avant au346
328 353 au327 avant au352
328 356 au327 avant au355
328 357 au327 avant au356
329 352 au328 avant au351
329 355 au328 avant au354
329 358 au328 avant au357
330 354 au329 avant au353
330 359 au329 avant au358
334 350 au333 avant au349
336 361 au335 avant au360
337 362 au336 avant au361
338 363 au337 avant au362
339 364 au338 avant au363
340 370 au339 avant au369
341 366 au340 avant au365
342 369 au341 avant au368
343 371 au342 avant au370
344 367 au343 avant au366
345 368 au344 avant au367
347 360 au346 avant au359
348 374 au347 avant au373
348 376 au347 avant au375
348 377 au347 avant au376
350 365 au349 avant au364
350 376 au349 avant au375
353 378 au352 avant au377
353 379 au352 avant au378
354 372 au353 avant au371
356 375 au355 avant au374
357 373 au356 avant au372
360 380 au359 avant au379
361 384 au360 avant au383
362 385 au361 avant au384
363 381 au362 avant au380
364 383 au363 avant au382
365 388 au364 avant au387
366 389 au365 avant au388
367 386 au366 avant au385
368 390 au367 avant au389
369 382 au368 avant au381
369 387 au368 avant au386
371 394 au370 avant au393
372 392 au371 avant au391
372 393 au371 avant au392
374 395 au373 avant au394
376 396 au375 avant au395
377 391 au376 avant au390
381 397 au380 avant au396
384 398 au383 avant au397
385 399 au384 avant au398
